100 153402
85 72 15 31 6 53 18 47 70 7 96 54 16 1 17 10 57 48 19 80 71 43 98 49 73 4 99 14 37 61 13 39 65 9 30 50 59 77 26 45 29 11 92 60 46 12 100 90 69 5 62 84 78 33 79 24 88 68 87 94 40 2 95 64 20 51 27 56 44 32 66 36 63 35 38 41 23 28 52 55 75 82 22 74 86 83 91 89 93 21 34 97 25 76 58 3 81 8 67 42 
